30004.84 0
0 26 23 164 87 178 12 180 78 146 40 83 136 171 14 72 38 187 122 121 70 42 76 90 53 153 62 15 151 157 183 106 68 133 156 79 193 77 173 64 159 85 95 142 188 17 84 58 149 63 154 3 92 43 59 52 123 176 2 82 39 5 115 4 117 144 135 18 195 36 61 34 118 50 191 99 29 143 1 47 140 91 116 177 54 112 86 25 162 130 147 94 55 150 27 11 114 132 46 20 181 9 101 8 141 19 24 113 163 81 182 105 103 186 13 67 32 165 44 98 30 56 71 134 160 75 126 108 124 145 45 51 7 65 37 185 148 137 119 179 80 33 129 174 49 168 93 139 16 89 88 10 167 109 41 22 120 189 100 194 197 73 111 60 170 6 131 66 74 158 35 128 107 198 175 196 190 28 127 57 102 110 192 21 184 172 152 69 138 48 169 97 166 96 104 31 161 125 199 155